002 001 002 001 001 001 000 001 003 003 007 006 002 001 003 002 002 002 003 003 002 001 000 000 000 000 000 000 000 -99 -99
001 000 001 001 001 002 001 001 001 001 004 002 000 001 002 003 002 002 002 003 002 002 001 000 000 000 000 000 000 -99 -99
000 000 000 000 001 001 001 001 000 000 000 000 000 001 003 003 002 002 005 004 004 003 001 000 000 000 000 000 000 -99 -99
000 000 000 001 000 001 000 000 000 000 000 000 000 000 004 008 005 003 006 006 004 004 002 000 000 000 000 000 -99 -99 -99
000 000 001 001 001 001 000 000 000 000 000 000 000 000 003 009 010 006 005 004 004 003 002 000 000 000 -99 -99 000 -99 -99
001 001 001 001 001 000 000 000 000 000 000 000 000 000 002 017 016 009 005 003 002 001 001 000 000 -99 -99 -99 -99 -99 -99
001 001 001 002 000 000 000 000 000 000 000 000 000 000 002 012 022 018 006 002 001 001 000 000 000 -99 -99 -99 -99 -99 -99
000 000 000 001 000 000 000 000 000 000 000 000 000 000 001 007 024 031 010 002 001 001 000 000 000 000 -99 -99 -99 000 -99
000 000 000 000 000 000 000 000 000 000 000 000 000 000 000 003 020 030 010 002 001 001 000 000 000 000 000 000 -99 000 000
001 001 000 000 000 000 000 000 000 000 000 000 000 000 000 006 011 021 007 002 000 000 001 000 000 000 000 000 000 000 000
001 001 000 000 000 000 000 000 000 000 002 001 001 001 000 004 011 005 002 001 000 000 000 000 000 000 000 000 000 000 000
000 000 000 -99 000 000 000 000 000 000 002 003 001 002 001 004 006 004 002 001 000 000 000 000 000 000 -99 000 000 000 000
000 000 000 000 000 000 000 000 000 000 003 004 002 002 001 002 004 003 003 001 000 000 -99 000 000 000 -99 000 000 000 000
000 000 000 000 000 000 000 000 000 000 002 005 004 003 002 002 003 003 004 002 002 002 004 000 000 000 000 000 000 000 000
000 000 000 000 000 000 000 000 000 000 002 007 010 009 002 002 003 005 003 002 003 002 004 000 000 000 000 000 000 000 000
000 000 000 000 000 000 000 000 000 001 001 006 007 008 001 001 003 005 003 003 005 007 004 001 001 000 000 000 000 -99 -99
000 000 000 000 000 000 000 000 000 001 002 005 004 006 001 001 003 004 005 004 003 004 005 003 001 001 001 000 000 000 000
000 000 000 -99 -99 000 000 000 000 002 003 004 003 006 001 000 001 003 006 005 003 003 003 003 001 001 001 000 000 000 000
000 000 000 000 000 000 002 001 002 004 003 002 003 003 001 001 001 002 005 004 002 003 004 006 002 001 000 000 000 000 000
000 000 000 000 000 001 002 002 001 001 001 000 001 002 001 001 001 001 001 002 001 003 006 006 003 001 000 000 -99 000 000
000 000 000 000 000 001 003 001 001 000 000 000 000 000 001 003 003 001 000 000 000 001 006 008 003 001 001 -99 -99 -99 -99
000 000 000 000 000 001 002 001 000 000 000 000 000 001 001 004 005 004 002 001 000 001 002 -99 002 002 -99 -99 -99 -99 -99
000 000 000 000 000 000 000 001 000 000 000 000 000 000 001 006 011 005 001 001 000 002 002 -99 002 002 -99 -99 -99 -99 -99
000 000 000 000 000 000 000 002 001 000 -99 -99 000 000 001 006 007 006 002 001 001 002 002 -99 002 -99 -99 -99 -99 -99 -99
000 000 000 000 000 000 000 001 001 000 -99 -99 000 000 000 002 002 004 002 001 001 002 003 -99 -99 -99 -99 -99 -99 -99 -99
000 000 000 000 000 000 000 000 000 000 -99 -99 000 000 000 001 001 002 002 001 001 001 003 -99 -99 -99 -99 -99 -99 -99 -99
000 000 000 000 000 000 000 000 000 000 -99 -99 000 000 000 000 002 001 003 002 001 001 001 -99 -99 -99 -99 -99 -99 -99 -99
000 000 000 000 000 000 000 000 000 000 -99 -99 -99 000 000 001 002 001 002 003 001 001 001 -99 -99 -99 -99 -99 -99 -99 000
000 000 000 000 000 000 000 000 000 000 000 -99 -99 -99 000 000 002 001 000 002 001 000 -99 -99 -99 -99 -99 -99 -99 -99 000
000 000 000 000 000 000 000 000 000 000 000 -99 -99 -99 000 000 000 000 000 000 000 000 -99 -99 -99 -99 -99 -99 -99 -99 -99
000 000 000 000 000 000 000 000 000 000 000 -99 -99 000 000 000 000 000 000 000 000 000 -99 000 000 000 -99 -99 -99 -99 -99
000 000 000 000 000 000 000 000 000 000 000 -99 000 000 000 000 000 000 000 000 000 000 000 000 000 000 -99 -99 000 001 002
001 000 001 000 000 000 000 000 000 000 -99 000 000 000 002 000 000 000 000 -99 -99 000 000 000 000 000 -99 000 001 002 003
001 001 000 000 000 000 000 000 000 -99 -99 000 000 000 001 000 000 000 -99 -99 -99 -99 -99 000 000 000 -99 000 000 002 004
001 001 000 000 000 000 000 000 000 000 000 000 000 000 000 -99 000 000 -99 000 000 -99 000 000 000 000 000 000 000 002 003
002 001 000 000 000 000 000 000 000 000 000 000 000 000 000 000 -99 -99 000 000 000 000 000 000 000 000 000 000 001 003 004
001 000 000 001 001 000 000 000 000 000 000 000 000 000 000 000 -99 000 000 000 000 000 000 000 000 000 000 000 002 006 005
000 000 000 001 001 000 000 000 000 000 000 000 000 000 000 000 000 000 000 000 000 000 000 000 000 000 000 001 001 005 004
000 000 000 001 000 000 000 000 000 000 000 000 000 000 000 000 000 000 000 000 000 000 000 000 000 000 000 000 002 003 003
000 000 000 001 000 000 000 000 000 000 000 000 000 000 000 000 000 000 000 000 000 000 000 000 000 000 000 001 001 001 003
000 000 000 000 000 000 000 000 000 000 000 000 000 000 000 001 001 000 000 000 000 000 000 000 000 000 000 001 001 000 001
000 000 000 000 000 000 000 000 000 000 000 000 000 000 001 001 000 000 000 000 000 000 000 001 001 000 000 001 002 002 002
000 000 000 000 000 000 000 000 000 000 000 000 000 001 000 001 000 000 000 000 002 000 001 005 006 004 001 001 004 011 005
000 000 000 000 000 001 001 001 001 000 000 000 002 002 001 001 000 000 000 003 009 002 005 009 010 011 001 001 010 012 004
000 000 000 000 000 001 001 001 000 001 000 000 004 002 001 002 001 000 000 007 017 004 008 012 021 015 002 002 010 011 002
000 000 000 000 001 001 002 001 000 000 001 001 002 001 001 000 001 000 000 008 012 014 011 009 022 007 002 007 006 011 002
000 000 001 001 002 002 003 001 000 000 000 000 000 000 000 001 000 000 001 005 011 006 010 009 015 005 006 012 012 005 003
000 000 000 002 005 006 004 002 000 000 000 000 000 000 000 000 000 000 000 004 003 007 010 012 008 006 013 014 010 006 003
000 000 000 002 005 008 006 001 000 000 000 000 000 000 000 000 000 000 000 003 010 012 010 009 011 008 006 009 012 006 002
000 000 000 000 002 005 002 000 000 001 002 000 000 000 000 000 000 000 001 004 011 015 012 009 016 013 005 005 003 001 001
000 000 000 000 001 002 001 000 001 006 002 000 000 000 000 000 000 000 000 002 011 014 007 006 019 009 002 001 001 000 001
000 000 000 000 000 000 001 001 004 005 003 004 002 000 000 000 000 000 000 001 005 012 003 005 008 002 000 000 000 000 001
000 000 000 000 000 001 001 003 004 006 005 006 002 001 000 000 000 000 000 001 002 004 002 001 002 000 000 000 000 -99 -99
000 000 000 000 000 000 002 002 002 007 007 006 003 003 001 000 000 000 000 000 000 003 000 000 000 000 000 000 -99 -99 -99
-99 -99 -99 -99 000 000 000 000 002 002 006 006 006 002 001 001 001 000 000 000 001 003 001 000 000 -99 -99 -99 -99 -99 -99
